p cnf 570 2500
1 2 3 4 5 6 7 8 9 10 11 12 13 14 15 16 17 18 19 20 21 22 23 24 25 26 27 28 29 30 31 32 33 34 35 36 37 38 39 40 41 42 43 44 45 46 47 48 49 50 51 52 53 54 55 56 57 58 59 60 61 62 63 64 65 66 67 68 69 70 71 72 73 74 75 0
76 77 78 79 80 81 82 83 84 85 86 87 88 89 90 91 92 93 94 95 96 97 98 99 100 101 102 103 104 105 106 107 108 109 110 111 112 113 114 115 116 117 118 119 120 0
121 122 123 124 125 126 127 128 129 130 131 132 133 134 135 136 137 138 139 140 141 142 143 144 145 146 147 148 149 150 151 152 153 154 155 156 157 158 159 160 161 162 163 164 165 166 167 168 169 170 171 172 173 174 175 176 177 178 179 180 181 182 183 184 185 186 187 188 189 190 191 192 193 194 195 196 197 198 199 200 0
201 202 203 204 205 206 207 208 209 210 211 212 213 214 215 216 217 218 219 220 221 222 223 224 225 226 227 228 229 230 231 232 233 234 235 236 237 238 239 240 241 242 243 244 245 246 247 248 249 250 251 252 253 254 255 256 257 258 259 260 261 262 263 264 265 266 267 268 269 270 271 272 273 274 275 276 277 278 279 280 281 282 283 284 285 286 287 288 289 290 0
291 292 293 294 295 296 297 298 299 300 301 302 303 304 305 306 307 308 309 310 311 312 313 314 315 0
316 317 318 319 320 321 322 323 324 325 0
326 327 328 329 330 331 332 333 334 335 336 337 338 339 340 341 342 343 344 345 346 347 348 349 350 351 352 353 354 355 356 357 358 359 360 361 362 363 364 365 366 367 368 369 370 371 372 373 374 375 376 377 378 379 380 381 382 383 384 385 386 387 388 389 390 391 392 393 394 395 396 397 398 399 400 401 402 403 404 405 406 407 408 409 410 411 412 413 414 415 416 417 418 419 420 421 422 423 424 425 0
426 427 428 429 430 431 432 433 434 435 436 437 438 439 440 441 442 443 444 445 446 447 448 449 450 451 452 453 454 455 456 457 458 459 460 0
461 462 463 464 465 466 467 468 469 470 471 472 473 474 475 476 477 478 479 480 481 482 483 484 485 486 487 488 489 490 491 492 493 494 495 496 497 498 499 500 501 502 503 504 505 0
506 507 508 509 510 511 512 513 514 515 516 517 518 519 520 521 522 523 524 525 526 527 528 529 530 531 532 533 534 535 536 537 538 539 540 541 542 543 544 545 546 547 548 549 550 551 552 553 554 555 556 557 558 559 560 561 562 563 564 565 566 567 568 569 570 0
-121 -202 0
-202 -121 0
-122 -203 0
-203 -122 0
-123 -204 0
-123 -326 0
-204 -123 0
-204 -326 0
-326 -123 0
-326 -204 0
-124 -205 0
-124 -327 0
-205 -124 0
-205 -327 0
-327 -124 0
-327 -205 0
-125 -206 0
-125 -328 0
-206 -125 0
-206 -328 0
-328 -125 0
-328 -206 0
-126 -207 0
-126 -329 0
-207 -126 0
-207 -329 0
-329 -126 0
-329 -207 0
-127 -208 0
-127 -330 0
-208 -127 0
-208 -330 0
-330 -127 0
-330 -208 0
-128 -209 0
-128 -331 0
-209 -128 0
-209 -331 0
-331 -128 0
-331 -209 0
-1 -129 0
-1 -210 0
-1 -316 0
-1 -332 0
-129 -1 0
-129 -210 0
-129 -316 0
-129 -332 0
-210 -1 0
-210 -129 0
-210 -316 0
-210 -332 0
-316 -1 0
-316 -129 0
-316 -210 0
-316 -332 0
-332 -1 0
-332 -129 0
-332 -210 0
-332 -316 0
-2 -130 0
-2 -211 0
-2 -317 0
-2 -333 0
-130 -2 0
-130 -211 0
-130 -317 0
-130 -333 0
-211 -2 0
-211 -130 0
-211 -317 0
-211 -333 0
-317 -2 0
-317 -130 0
-317 -211 0
-317 -333 0
-333 -2 0
-333 -130 0
-333 -211 0
-333 -317 0
-3 -131 0
-3 -212 0
-3 -334 0
-131 -3 0
-131 -212 0
-131 -334 0
-212 -3 0
-212 -131 0
-212 -334 0
-334 -3 0
-334 -131 0
-334 -212 0
-4 -132 0
-4 -213 0
-4 -335 0
-4 -426 0
-132 -4 0
-132 -213 0
-132 -335 0
-132 -426 0
-213 -4 0
-213 -132 0
-213 -335 0
-213 -426 0
-335 -4 0
-335 -132 0
-335 -213 0
-335 -426 0
-426 -4 0
-426 -132 0
-426 -213 0
-426 -335 0
-5 -76 0
-5 -133 0
-5 -214 0
-5 -291 0
-5 -336 0
-5 -427 0
-76 -5 0
-76 -133 0
-76 -214 0
-76 -291 0
-76 -336 0
-76 -427 0
-133 -5 0
-133 -76 0
-133 -214 0
-133 -291 0
-133 -336 0
-133 -427 0
-214 -5 0
-214 -76 0
-214 -133 0
-214 -291 0
-214 -336 0
-214 -427 0
-291 -5 0
-291 -76 0
-291 -133 0
-291 -214 0
-291 -336 0
-291 -427 0
-336 -5 0
-336 -76 0
-336 -133 0
-336 -214 0
-336 -291 0
-336 -427 0
-427 -5 0
-427 -76 0
-427 -133 0
-427 -214 0
-427 -291 0
-427 -336 0
-6 -77 0
-6 -134 0
-6 -215 0
-6 -292 0
-6 -337 0
-6 -428 0
-6 -461 0
-77 -6 0
-77 -134 0
-77 -215 0
-77 -292 0
-77 -337 0
-77 -428 0
-77 -461 0
-134 -6 0
-134 -77 0
-134 -215 0
-134 -292 0
-134 -337 0
-134 -428 0
-134 -461 0
-215 -6 0
-215 -77 0
-215 -134 0
-215 -292 0
-215 -337 0
-215 -428 0
-215 -461 0
-292 -6 0
-292 -77 0
-292 -134 0
-292 -215 0
-292 -337 0
-292 -428 0
-292 -461 0
-337 -6 0
-337 -77 0
-337 -134 0
-337 -215 0
-337 -292 0
-337 -428 0
-337 -461 0
-428 -6 0
-428 -77 0
-428 -134 0
-428 -215 0
-428 -292 0
-428 -337 0
-428 -461 0
-461 -6 0
-461 -77 0
-461 -134 0
-461 -215 0
-461 -292 0
-461 -337 0
-461 -428 0
-7 -78 0
-7 -135 0
-7 -216 0
-7 -293 0
-7 -338 0
-7 -429 0
-7 -462 0
-78 -7 0
-78 -135 0
-78 -216 0
-78 -293 0
-78 -338 0
-78 -429 0
-78 -462 0
-135 -7 0
-135 -78 0
-135 -216 0
-135 -293 0
-135 -338 0
-135 -429 0
-135 -462 0
-216 -7 0
-216 -78 0
-216 -135 0
-216 -293 0
-216 -338 0
-216 -429 0
-216 -462 0
-293 -7 0
-293 -78 0
-293 -135 0
-293 -216 0
-293 -338 0
-293 -429 0
-293 -462 0
-338 -7 0
-338 -78 0
-338 -135 0
-338 -216 0
-338 -293 0
-338 -429 0
-338 -462 0
-429 -7 0
-429 -78 0
-429 -135 0
-429 -216 0
-429 -293 0
-429 -338 0
-429 -462 0
-462 -7 0
-462 -78 0
-462 -135 0
-462 -216 0
-462 -293 0
-462 -338 0
-462 -429 0
-8 -79 0
-8 -136 0
-8 -217 0
-8 -294 0
-8 -339 0
-8 -430 0
-8 -463 0
-8 -506 0
-79 -8 0
-79 -136 0
-79 -217 0
-79 -294 0
-79 -339 0
-79 -430 0
-79 -463 0
-79 -506 0
-136 -8 0
-136 -79 0
-136 -217 0
-136 -294 0
-136 -339 0
-136 -430 0
-136 -463 0
-136 -506 0
-217 -8 0
-217 -79 0
-217 -136 0
-217 -294 0
-217 -339 0
-217 -430 0
-217 -463 0
-217 -506 0
-294 -8 0
-294 -79 0
-294 -136 0
-294 -217 0
-294 -339 0
-294 -430 0
-294 -463 0
-294 -506 0
-339 -8 0
-339 -79 0
-339 -136 0
-339 -217 0
-339 -294 0
-339 -430 0
-339 -463 0
-339 -506 0
-430 -8 0
-430 -79 0
-430 -136 0
-430 -217 0
-430 -294 0
-430 -339 0
-430 -463 0
-430 -506 0
-463 -8 0
-463 -79 0
-463 -136 0
-463 -217 0
-463 -294 0
-463 -339 0
-463 -430 0
-463 -506 0
-506 -8 0
-506 -79 0
-506 -136 0
-506 -217 0
-506 -294 0
-506 -339 0
-506 -430 0
-506 -463 0
-9 -80 0
-9 -218 0
-9 -295 0
-9 -340 0
-9 -431 0
-9 -464 0
-9 -507 0
-80 -9 0
-80 -218 0
-80 -295 0
-80 -340 0
-80 -431 0
-80 -464 0
-80 -507 0
-218 -9 0
-218 -80 0
-218 -295 0
-218 -340 0
-218 -431 0
-218 -464 0
-218 -507 0
-295 -9 0
-295 -80 0
-295 -218 0
-295 -340 0
-295 -431 0
-295 -464 0
-295 -507 0
-340 -9 0
-340 -80 0
-340 -218 0
-340 -295 0
-340 -431 0
-340 -464 0
-340 -507 0
-431 -9 0
-431 -80 0
-431 -218 0
-431 -295 0
-431 -340 0
-431 -464 0
-431 -507 0
-464 -9 0
-464 -80 0
-464 -218 0
-464 -295 0
-464 -340 0
-464 -431 0
-464 -507 0
-507 -9 0
-507 -80 0
-507 -218 0
-507 -295 0
-507 -340 0
-507 -431 0
-507 -464 0
-10 -81 0
-10 -341 0
-10 -432 0
-10 -465 0
-10 -508 0
-81 -10 0
-81 -341 0
-81 -432 0
-81 -465 0
-81 -508 0
-341 -10 0
-341 -81 0
-341 -432 0
-341 -465 0
-341 -508 0
-432 -10 0
-432 -81 0
-432 -341 0
-432 -465 0
-432 -508 0
-465 -10 0
-465 -81 0
-465 -341 0
-465 -432 0
-465 -508 0
-508 -10 0
-508 -81 0
-508 -341 0
-508 -432 0
-508 -465 0
-11 -82 0
-11 -342 0
-11 -466 0
-11 -509 0
-82 -11 0
-82 -342 0
-82 -466 0
-82 -509 0
-342 -11 0
-342 -82 0
-342 -466 0
-342 -509 0
-466 -11 0
-466 -82 0
-466 -342 0
-466 -509 0
-509 -11 0
-509 -82 0
-509 -342 0
-509 -466 0
-12 -83 0
-12 -343 0
-12 -467 0
-12 -510 0
-83 -12 0
-83 -343 0
-83 -467 0
-83 -510 0
-343 -12 0
-343 -83 0
-343 -467 0
-343 -510 0
-467 -12 0
-467 -83 0
-467 -343 0
-467 -510 0
-510 -12 0
-510 -83 0
-510 -343 0
-510 -467 0
-13 -84 0
-13 -344 0
-13 -468 0
-13 -511 0
-84 -13 0
-84 -344 0
-84 -468 0
-84 -511 0
-344 -13 0
-344 -84 0
-344 -468 0
-344 -511 0
-468 -13 0
-468 -84 0
-468 -344 0
-468 -511 0
-511 -13 0
-511 -84 0
-511 -344 0
-511 -468 0
-14 -345 0
-14 -469 0
-14 -512 0
-345 -14 0
-345 -469 0
-345 -512 0
-469 -14 0
-469 -345 0
-469 -512 0
-512 -14 0
-512 -345 0
-512 -469 0
-15 -513 0
-513 -15 0
-137 -220 0
-220 -137 0
-138 -221 0
-221 -138 0
-139 -222 0
-139 -346 0
-222 -139 0
-222 -346 0
-346 -139 0
-346 -222 0
-140 -223 0
-140 -347 0
-223 -140 0
-223 -347 0
-347 -140 0
-347 -223 0
-141 -224 0
-141 -348 0
-224 -141 0
-224 -348 0
-348 -141 0
-348 -224 0
-142 -225 0
-142 -349 0
-225 -142 0
-225 -349 0
-349 -142 0
-349 -225 0
-143 -226 0
-143 -350 0
-226 -143 0
-226 -350 0
-350 -143 0
-350 -226 0
-144 -227 0
-144 -351 0
-227 -144 0
-227 -351 0
-351 -144 0
-351 -227 0
-16 -145 0
-16 -228 0
-16 -318 0
-16 -352 0
-145 -16 0
-145 -228 0
-145 -318 0
-145 -352 0
-228 -16 0
-228 -145 0
-228 -318 0
-228 -352 0
-318 -16 0
-318 -145 0
-318 -228 0
-318 -352 0
-352 -16 0
-352 -145 0
-352 -228 0
-352 -318 0
-17 -146 0
-17 -229 0
-17 -319 0
-17 -353 0
-146 -17 0
-146 -229 0
-146 -319 0
-146 -353 0
-229 -17 0
-229 -146 0
-229 -319 0
-229 -353 0
-319 -17 0
-319 -146 0
-319 -229 0
-319 -353 0
-353 -17 0
-353 -146 0
-353 -229 0
-353 -319 0
-18 -147 0
-18 -230 0
-18 -354 0
-147 -18 0
-147 -230 0
-147 -354 0
-230 -18 0
-230 -147 0
-230 -354 0
-354 -18 0
-354 -147 0
-354 -230 0
-19 -148 0
-19 -231 0
-19 -355 0
-19 -433 0
-148 -19 0
-148 -231 0
-148 -355 0
-148 -433 0
-231 -19 0
-231 -148 0
-231 -355 0
-231 -433 0
-355 -19 0
-355 -148 0
-355 -231 0
-355 -433 0
-433 -19 0
-433 -148 0
-433 -231 0
-433 -355 0
-20 -85 0
-20 -149 0
-20 -232 0
-20 -296 0
-20 -356 0
-20 -434 0
-85 -20 0
-85 -149 0
-85 -232 0
-85 -296 0
-85 -356 0
-85 -434 0
-149 -20 0
-149 -85 0
-149 -232 0
-149 -296 0
-149 -356 0
-149 -434 0
-232 -20 0
-232 -85 0
-232 -149 0
-232 -296 0
-232 -356 0
-232 -434 0
-296 -20 0
-296 -85 0
-296 -149 0
-296 -232 0
-296 -356 0
-296 -434 0
-356 -20 0
-356 -85 0
-356 -149 0
-356 -232 0
-356 -296 0
-356 -434 0
-434 -20 0
-434 -85 0
-434 -149 0
-434 -232 0
-434 -296 0
-434 -356 0
-21 -86 0
-21 -150 0
-21 -233 0
-21 -297 0
-21 -357 0
-21 -435 0
-21 -470 0
-86 -21 0
-86 -150 0
-86 -233 0
-86 -297 0
-86 -357 0
-86 -435 0
-86 -470 0
-150 -21 0
-150 -86 0
-150 -233 0
-150 -297 0
-150 -357 0
-150 -435 0
-150 -470 0
-233 -21 0
-233 -86 0
-233 -150 0
-233 -297 0
-233 -357 0
-233 -435 0
-233 -470 0
-297 -21 0
-297 -86 0
-297 -150 0
-297 -233 0
-297 -357 0
-297 -435 0
-297 -470 0
-357 -21 0
-357 -86 0
-357 -150 0
-357 -233 0
-357 -297 0
-357 -435 0
-357 -470 0
-435 -21 0
-435 -86 0
-435 -150 0
-435 -233 0
-435 -297 0
-435 -357 0
-435 -470 0
-470 -21 0
-470 -86 0
-470 -150 0
-470 -233 0
-470 -297 0
-470 -357 0
-470 -435 0
-22 -87 0
-22 -151 0
-22 -234 0
-22 -298 0
-22 -358 0
-22 -436 0
-22 -471 0
-87 -22 0
-87 -151 0
-87 -234 0
-87 -298 0
-87 -358 0
-87 -436 0
-87 -471 0
-151 -22 0
-151 -87 0
-151 -234 0
-151 -298 0
-151 -358 0
-151 -436 0
-151 -471 0
-234 -22 0
-234 -87 0
-234 -151 0
-234 -298 0
-234 -358 0
-234 -436 0
-234 -471 0
-298 -22 0
-298 -87 0
-298 -151 0
-298 -234 0
-298 -358 0
-298 -436 0
-298 -471 0
-358 -22 0
-358 -87 0
-358 -151 0
-358 -234 0
-358 -298 0
-358 -436 0
-358 -471 0
-436 -22 0
-436 -87 0
-436 -151 0
-436 -234 0
-436 -298 0
-436 -358 0
-436 -471 0
-471 -22 0
-471 -87 0
-471 -151 0
-471 -234 0
-471 -298 0
-471 -358 0
-471 -436 0
-23 -88 0
-23 -152 0
-23 -235 0
-23 -299 0
-23 -359 0
-23 -437 0
-23 -472 0
-23 -519 0
-88 -23 0
-88 -152 0
-88 -235 0
-88 -299 0
-88 -359 0
-88 -437 0
-88 -472 0
-88 -519 0
-152 -23 0
-152 -88 0
-152 -235 0
-152 -299 0
-152 -359 0
-152 -437 0
-152 -472 0
-152 -519 0
-235 -23 0
-235 -88 0
-235 -152 0
-235 -299 0
-235 -359 0
-235 -437 0
-235 -472 0
-235 -519 0
-299 -23 0
-299 -88 0
-299 -152 0
-299 -235 0
-299 -359 0
-299 -437 0
-299 -472 0
-299 -519 0
-359 -23 0
-359 -88 0
-359 -152 0
-359 -235 0
-359 -299 0
-359 -437 0
-359 -472 0
-359 -519 0
-437 -23 0
-437 -88 0
-437 -152 0
-437 -235 0
-437 -299 0
-437 -359 0
-437 -472 0
-437 -519 0
-472 -23 0
-472 -88 0
-472 -152 0
-472 -235 0
-472 -299 0
-472 -359 0
-472 -437 0
-472 -519 0
-519 -23 0
-519 -88 0
-519 -152 0
-519 -235 0
-519 -299 0
-519 -359 0
-519 -437 0
-519 -472 0
-24 -89 0
-24 -236 0
-24 -300 0
-24 -360 0
-24 -438 0
-24 -473 0
-24 -520 0
-89 -24 0
-89 -236 0
-89 -300 0
-89 -360 0
-89 -438 0
-89 -473 0
-89 -520 0
-236 -24 0
-236 -89 0
-236 -300 0
-236 -360 0
-236 -438 0
-236 -473 0
-236 -520 0
-300 -24 0
-300 -89 0
-300 -236 0
-300 -360 0
-300 -438 0
-300 -473 0
-300 -520 0
-360 -24 0
-360 -89 0
-360 -236 0
-360 -300 0
-360 -438 0
-360 -473 0
-360 -520 0
-438 -24 0
-438 -89 0
-438 -236 0
-438 -300 0
-438 -360 0
-438 -473 0
-438 -520 0
-473 -24 0
-473 -89 0
-473 -236 0
-473 -300 0
-473 -360 0
-473 -438 0
-473 -520 0
-520 -24 0
-520 -89 0
-520 -236 0
-520 -300 0
-520 -360 0
-520 -438 0
-520 -473 0
-25 -90 0
-25 -361 0
-25 -439 0
-25 -474 0
-25 -521 0
-90 -25 0
-90 -361 0
-90 -439 0
-90 -474 0
-90 -521 0
-361 -25 0
-361 -90 0
-361 -439 0
-361 -474 0
-361 -521 0
-439 -25 0
-439 -90 0
-439 -361 0
-439 -474 0
-439 -521 0
-474 -25 0
-474 -90 0
-474 -361 0
-474 -439 0
-474 -521 0
-521 -25 0
-521 -90 0
-521 -361 0
-521 -439 0
-521 -474 0
-26 -91 0
-26 -362 0
-26 -475 0
-26 -522 0
-91 -26 0
-91 -362 0
-91 -475 0
-91 -522 0
-362 -26 0
-362 -91 0
-362 -475 0
-362 -522 0
-475 -26 0
-475 -91 0
-475 -362 0
-475 -522 0
-522 -26 0
-522 -91 0
-522 -362 0
-522 -475 0
-27 -92 0
-27 -363 0
-27 -476 0
-27 -523 0
-92 -27 0
-92 -363 0
-92 -476 0
-92 -523 0
-363 -27 0
-363 -92 0
-363 -476 0
-363 -523 0
-476 -27 0
-476 -92 0
-476 -363 0
-476 -523 0
-523 -27 0
-523 -92 0
-523 -363 0
-523 -476 0
-28 -93 0
-28 -364 0
-28 -477 0
-28 -524 0
-93 -28 0
-93 -364 0
-93 -477 0
-93 -524 0
-364 -28 0
-364 -93 0
-364 -477 0
-364 -524 0
-477 -28 0
-477 -93 0
-477 -364 0
-477 -524 0
-524 -28 0
-524 -93 0
-524 -364 0
-524 -477 0
-29 -365 0
-29 -478 0
-29 -525 0
-365 -29 0
-365 -478 0
-365 -525 0
-478 -29 0
-478 -365 0
-478 -525 0
-525 -29 0
-525 -365 0
-525 -478 0
-30 -526 0
-526 -30 0
-153 -238 0
-238 -153 0
-154 -239 0
-239 -154 0
-155 -240 0
-155 -366 0
-240 -155 0
-240 -366 0
-366 -155 0
-366 -240 0
-156 -241 0
-156 -367 0
-241 -156 0
-241 -367 0
-367 -156 0
-367 -241 0
-157 -242 0
-157 -368 0
-242 -157 0
-242 -368 0
-368 -157 0
-368 -242 0
-158 -243 0
-158 -369 0
-243 -158 0
-243 -369 0
-369 -158 0
-369 -243 0
-159 -244 0
-159 -370 0
-244 -159 0
-244 -370 0
-370 -159 0
-370 -244 0
-160 -245 0
-160 -371 0
-245 -160 0
-245 -371 0
-371 -160 0
-371 -245 0
-31 -161 0
-31 -246 0
-31 -320 0
-31 -372 0
-161 -31 0
-161 -246 0
-161 -320 0
-161 -372 0
-246 -31 0
-246 -161 0
-246 -320 0
-246 -372 0
-320 -31 0
-320 -161 0
-320 -246 0
-320 -372 0
-372 -31 0
-372 -161 0
-372 -246 0
-372 -320 0
-32 -162 0
-32 -247 0
-32 -321 0
-32 -373 0
-162 -32 0
-162 -247 0
-162 -321 0
-162 -373 0
-247 -32 0
-247 -162 0
-247 -321 0
-247 -373 0
-321 -32 0
-321 -162 0
-321 -247 0
-321 -373 0
-373 -32 0
-373 -162 0
-373 -247 0
-373 -321 0
-33 -163 0
-33 -248 0
-33 -374 0
-163 -33 0
-163 -248 0
-163 -374 0
-248 -33 0
-248 -163 0
-248 -374 0
-374 -33 0
-374 -163 0
-374 -248 0
-34 -164 0
-34 -249 0
-34 -375 0
-34 -440 0
-164 -34 0
-164 -249 0
-164 -375 0
-164 -440 0
-249 -34 0
-249 -164 0
-249 -375 0
-249 -440 0
-375 -34 0
-375 -164 0
-375 -249 0
-375 -440 0
-440 -34 0
-440 -164 0
-440 -249 0
-440 -375 0
-35 -94 0
-35 -165 0
-35 -250 0
-35 -301 0
-35 -376 0
-35 -441 0
-94 -35 0
-94 -165 0
-94 -250 0
-94 -301 0
-94 -376 0
-94 -441 0
-165 -35 0
-165 -94 0
-165 -250 0
-165 -301 0
-165 -376 0
-165 -441 0
-250 -35 0
-250 -94 0
-250 -165 0
-250 -301 0
-250 -376 0
-250 -441 0
-301 -35 0
-301 -94 0
-301 -165 0
-301 -250 0
-301 -376 0
-301 -441 0
-376 -35 0
-376 -94 0
-376 -165 0
-376 -250 0
-376 -301 0
-376 -441 0
-441 -35 0
-441 -94 0
-441 -165 0
-441 -250 0
-441 -301 0
-441 -376 0
-36 -95 0
-36 -166 0
-36 -251 0
-36 -302 0
-36 -377 0
-36 -442 0
-36 -479 0
-95 -36 0
-95 -166 0
-95 -251 0
-95 -302 0
-95 -377 0
-95 -442 0
-95 -479 0
-166 -36 0
-166 -95 0
-166 -251 0
-166 -302 0
-166 -377 0
-166 -442 0
-166 -479 0
-251 -36 0
-251 -95 0
-251 -166 0
-251 -302 0
-251 -377 0
-251 -442 0
-251 -479 0
-302 -36 0
-302 -95 0
-302 -166 0
-302 -251 0
-302 -377 0
-302 -442 0
-302 -479 0
-377 -36 0
-377 -95 0
-377 -166 0
-377 -251 0
-377 -302 0
-377 -442 0
-377 -479 0
-442 -36 0
-442 -95 0
-442 -166 0
-442 -251 0
-442 -302 0
-442 -377 0
-442 -479 0
-479 -36 0
-479 -95 0
-479 -166 0
-479 -251 0
-479 -302 0
-479 -377 0
-479 -442 0
-37 -96 0
-37 -167 0
-37 -252 0
-37 -303 0
-37 -378 0
-37 -443 0
-37 -480 0
-96 -37 0
-96 -167 0
-96 -252 0
-96 -303 0
-96 -378 0
-96 -443 0
-96 -480 0
-167 -37 0
-167 -96 0
-167 -252 0
-167 -303 0
-167 -378 0
-167 -443 0
-167 -480 0
-252 -37 0
-252 -96 0
-252 -167 0
-252 -303 0
-252 -378 0
-252 -443 0
-252 -480 0
-303 -37 0
-303 -96 0
-303 -167 0
-303 -252 0
-303 -378 0
-303 -443 0
-303 -480 0
-378 -37 0
-378 -96 0
-378 -167 0
-378 -252 0
-378 -303 0
-378 -443 0
-378 -480 0
-443 -37 0
-443 -96 0
-443 -167 0
-443 -252 0
-443 -303 0
-443 -378 0
-443 -480 0
-480 -37 0
-480 -96 0
-480 -167 0
-480 -252 0
-480 -303 0
-480 -378 0
-480 -443 0
-38 -97 0
-38 -168 0
-38 -253 0
-38 -304 0
-38 -379 0
-38 -444 0
-38 -481 0
-38 -532 0
-97 -38 0
-97 -168 0
-97 -253 0
-97 -304 0
-97 -379 0
-97 -444 0
-97 -481 0
-97 -532 0
-168 -38 0
-168 -97 0
-168 -253 0
-168 -304 0
-168 -379 0
-168 -444 0
-168 -481 0
-168 -532 0
-253 -38 0
-253 -97 0
-253 -168 0
-253 -304 0
-253 -379 0
-253 -444 0
-253 -481 0
-253 -532 0
-304 -38 0
-304 -97 0
-304 -168 0
-304 -253 0
-304 -379 0
-304 -444 0
-304 -481 0
-304 -532 0
-379 -38 0
-379 -97 0
-379 -168 0
-379 -253 0
-379 -304 0
-379 -444 0
-379 -481 0
-379 -532 0
-444 -38 0
-444 -97 0
-444 -168 0
-444 -253 0
-444 -304 0
-444 -379 0
-444 -481 0
-444 -532 0
-481 -38 0
-481 -97 0
-481 -168 0
-481 -253 0
-481 -304 0
-481 -379 0
-481 -444 0
-481 -532 0
-532 -38 0
-532 -97 0
-532 -168 0
-532 -253 0
-532 -304 0
-532 -379 0
-532 -444 0
-532 -481 0
-39 -98 0
-39 -254 0
-39 -305 0
-39 -380 0
-39 -445 0
-39 -482 0
-39 -533 0
-98 -39 0
-98 -254 0
-98 -305 0
-98 -380 0
-98 -445 0
-98 -482 0
-98 -533 0
-254 -39 0
-254 -98 0
-254 -305 0
-254 -380 0
-254 -445 0
-254 -482 0
-254 -533 0
-305 -39 0
-305 -98 0
-305 -254 0
-305 -380 0
-305 -445 0
-305 -482 0
-305 -533 0
-380 -39 0
-380 -98 0
-380 -254 0
-380 -305 0
-380 -445 0
-380 -482 0
-380 -533 0
-445 -39 0
-445 -98 0
-445 -254 0
-445 -305 0
-445 -380 0
-445 -482 0
-445 -533 0
-482 -39 0
-482 -98 0
-482 -254 0
-482 -305 0
-482 -380 0
-482 -445 0
-482 -533 0
-533 -39 0
-533 -98 0
-533 -254 0
-533 -305 0
-533 -380 0
-533 -445 0
-533 -482 0
-40 -99 0
-40 -381 0
-40 -446 0
-40 -483 0
-40 -534 0
-99 -40 0
-99 -381 0
-99 -446 0
-99 -483 0
-99 -534 0
-381 -40 0
-381 -99 0
-381 -446 0
-381 -483 0
-381 -534 0
-446 -40 0
-446 -99 0
-446 -381 0
-446 -483 0
-446 -534 0
-483 -40 0
-483 -99 0
-483 -381 0
-483 -446 0
-483 -534 0
-534 -40 0
-534 -99 0
-534 -381 0
-534 -446 0
-534 -483 0
-41 -100 0
-41 -382 0
-41 -484 0
-41 -535 0
-100 -41 0
-100 -382 0
-100 -484 0
-100 -535 0
-382 -41 0
-382 -100 0
-382 -484 0
-382 -535 0
-484 -41 0
-484 -100 0
-484 -382 0
-484 -535 0
-535 -41 0
-535 -100 0
-535 -382 0
-535 -484 0
-42 -101 0
-42 -383 0
-42 -485 0
-42 -536 0
-101 -42 0
-101 -383 0
-101 -485 0
-101 -536 0
-383 -42 0
-383 -101 0
-383 -485 0
-383 -536 0
-485 -42 0
-485 -101 0
-485 -383 0
-485 -536 0
-536 -42 0
-536 -101 0
-536 -383 0
-536 -485 0
-43 -102 0
-43 -384 0
-43 -486 0
-43 -537 0
-102 -43 0
-102 -384 0
-102 -486 0
-102 -537 0
-384 -43 0
-384 -102 0
-384 -486 0
-384 -537 0
-486 -43 0
-486 -102 0
-486 -384 0
-486 -537 0
-537 -43 0
-537 -102 0
-537 -384 0
-537 -486 0
-44 -385 0
-44 -487 0
-44 -538 0
-385 -44 0
-385 -487 0
-385 -538 0
-487 -44 0
-487 -385 0
-487 -538 0
-538 -44 0
-538 -385 0
-538 -487 0
-45 -539 0
-539 -45 0
-169 -256 0
-256 -169 0
-170 -257 0
-257 -170 0
-171 -258 0
-171 -386 0
-258 -171 0
-258 -386 0
-386 -171 0
-386 -258 0
-172 -259 0
-172 -387 0
-259 -172 0
-259 -387 0
-387 -172 0
-387 -259 0
-173 -260 0
-173 -388 0
-260 -173 0
-260 -388 0
-388 -173 0
-388 -260 0
-174 -261 0
-174 -389 0
-261 -174 0
-261 -389 0
-389 -174 0
-389 -261 0
-175 -262 0
-175 -390 0
-262 -175 0
-262 -390 0
-390 -175 0
-390 -262 0
-176 -263 0
-176 -391 0
-263 -176 0
-263 -391 0
-391 -176 0
-391 -263 0
-46 -177 0
-46 -264 0
-46 -322 0
-46 -392 0
-177 -46 0
-177 -264 0
-177 -322 0
-177 -392 0
-264 -46 0
-264 -177 0
-264 -322 0
-264 -392 0
-322 -46 0
-322 -177 0
-322 -264 0
-322 -392 0
-392 -46 0
-392 -177 0
-392 -264 0
-392 -322 0
-47 -178 0
-47 -265 0
-47 -323 0
-47 -393 0
-178 -47 0
-178 -265 0
-178 -323 0
-178 -393 0
-265 -47 0
-265 -178 0
-265 -323 0
-265 -393 0
-323 -47 0
-323 -178 0
-323 -265 0
-323 -393 0
-393 -47 0
-393 -178 0
-393 -265 0
-393 -323 0
-48 -179 0
-48 -266 0
-48 -394 0
-179 -48 0
-179 -266 0
-179 -394 0
-266 -48 0
-266 -179 0
-266 -394 0
-394 -48 0
-394 -179 0
-394 -266 0
-49 -180 0
-49 -267 0
-49 -395 0
-49 -447 0
-180 -49 0
-180 -267 0
-180 -395 0
-180 -447 0
-267 -49 0
-267 -180 0
-267 -395 0
-267 -447 0
-395 -49 0
-395 -180 0
-395 -267 0
-395 -447 0
-447 -49 0
-447 -180 0
-447 -267 0
-447 -395 0
-50 -103 0
-50 -181 0
-50 -268 0
-50 -306 0
-50 -396 0
-50 -448 0
-103 -50 0
-103 -181 0
-103 -268 0
-103 -306 0
-103 -396 0
-103 -448 0
-181 -50 0
-181 -103 0
-181 -268 0
-181 -306 0
-181 -396 0
-181 -448 0
-268 -50 0
-268 -103 0
-268 -181 0
-268 -306 0
-268 -396 0
-268 -448 0
-306 -50 0
-306 -103 0
-306 -181 0
-306 -268 0
-306 -396 0
-306 -448 0
-396 -50 0
-396 -103 0
-396 -181 0
-396 -268 0
-396 -306 0
-396 -448 0
-448 -50 0
-448 -103 0
-448 -181 0
-448 -268 0
-448 -306 0
-448 -396 0
-51 -104 0
-51 -182 0
-51 -269 0
-51 -307 0
-51 -397 0
-51 -449 0
-51 -488 0
-104 -51 0
-104 -182 0
-104 -269 0
-104 -307 0
-104 -397 0
-104 -449 0
-104 -488 0
-182 -51 0
-182 -104 0
-182 -269 0
-182 -307 0
-182 -397 0
-182 -449 0
-182 -488 0
-269 -51 0
-269 -104 0
-269 -182 0
-269 -307 0
-269 -397 0
-269 -449 0
-269 -488 0
-307 -51 0
-307 -104 0
-307 -182 0
-307 -269 0
-307 -397 0
-307 -449 0
-307 -488 0
-397 -51 0
-397 -104 0
-397 -182 0
-397 -269 0
-397 -307 0
-397 -449 0
-397 -488 0
-449 -51 0
-449 -104 0
-449 -182 0
-449 -269 0
-449 -307 0
-449 -397 0
-449 -488 0
-488 -51 0
-488 -104 0
-488 -182 0
-488 -269 0
-488 -307 0
-488 -397 0
-488 -449 0
-52 -105 0
-52 -183 0
-52 -270 0
-52 -308 0
-52 -398 0
-52 -450 0
-52 -489 0
-105 -52 0
-105 -183 0
-105 -270 0
-105 -308 0
-105 -398 0
-105 -450 0
-105 -489 0
-183 -52 0
-183 -105 0
-183 -270 0
-183 -308 0
-183 -398 0
-183 -450 0
-183 -489 0
-270 -52 0
-270 -105 0
-270 -183 0
-270 -308 0
-270 -398 0
-270 -450 0
-270 -489 0
-308 -52 0
-308 -105 0
-308 -183 0
-308 -270 0
-308 -398 0
-308 -450 0
-308 -489 0
-398 -52 0
-398 -105 0
-398 -183 0
-398 -270 0
-398 -308 0
-398 -450 0
-398 -489 0
-450 -52 0
-450 -105 0
-450 -183 0
-450 -270 0
-450 -308 0
-450 -398 0
-450 -489 0
-489 -52 0
-489 -105 0
-489 -183 0
-489 -270 0
-489 -308 0
-489 -398 0
-489 -450 0
-53 -106 0
-53 -184 0
-53 -271 0
-53 -309 0
-53 -399 0
-53 -451 0
-53 -490 0
-53 -545 0
-106 -53 0
-106 -184 0
-106 -271 0
-106 -309 0
-106 -399 0
-106 -451 0
-106 -490 0
-106 -545 0
-184 -53 0
-184 -106 0
-184 -271 0
-184 -309 0
-184 -399 0
-184 -451 0
-184 -490 0
-184 -545 0
-271 -53 0
-271 -106 0
-271 -184 0
-271 -309 0
-271 -399 0
-271 -451 0
-271 -490 0
-271 -545 0
-309 -53 0
-309 -106 0
-309 -184 0
-309 -271 0
-309 -399 0
-309 -451 0
-309 -490 0
-309 -545 0
-399 -53 0
-399 -106 0
-399 -184 0
-399 -271 0
-399 -309 0
-399 -451 0
-399 -490 0
-399 -545 0
-451 -53 0
-451 -106 0
-451 -184 0
-451 -271 0
-451 -309 0
-451 -399 0
-451 -490 0
-451 -545 0
-490 -53 0
-490 -106 0
-490 -184 0
-490 -271 0
-490 -309 0
-490 -399 0
-490 -451 0
-490 -545 0
-545 -53 0
-545 -106 0
-545 -184 0
-545 -271 0
-545 -309 0
-545 -399 0
-545 -451 0
-545 -490 0
-54 -107 0
-54 -272 0
-54 -310 0
-54 -400 0
-54 -452 0
-54 -491 0
-54 -546 0
-107 -54 0
-107 -272 0
-107 -310 0
-107 -400 0
-107 -452 0
-107 -491 0
-107 -546 0
-272 -54 0
-272 -107 0
-272 -310 0
-272 -400 0
-272 -452 0
-272 -491 0
-272 -546 0
-310 -54 0
-310 -107 0
-310 -272 0
-310 -400 0
-310 -452 0
-310 -491 0
-310 -546 0
-400 -54 0
-400 -107 0
-400 -272 0
-400 -310 0
-400 -452 0
-400 -491 0
-400 -546 0
-452 -54 0
-452 -107 0
-452 -272 0
-452 -310 0
-452 -400 0
-452 -491 0
-452 -546 0
-491 -54 0
-491 -107 0
-491 -272 0
-491 -310 0
-491 -400 0
-491 -452 0
-491 -546 0
-546 -54 0
-546 -107 0
-546 -272 0
-546 -310 0
-546 -400 0
-546 -452 0
-546 -491 0
-55 -108 0
-55 -401 0
-55 -453 0
-55 -492 0
-55 -547 0
-108 -55 0
-108 -401 0
-108 -453 0
-108 -492 0
-108 -547 0
-401 -55 0
-401 -108 0
-401 -453 0
-401 -492 0
-401 -547 0
-453 -55 0
-453 -108 0
-453 -401 0
-453 -492 0
-453 -547 0
-492 -55 0
-492 -108 0
-492 -401 0
-492 -453 0
-492 -547 0
-547 -55 0
-547 -108 0
-547 -401 0
-547 -453 0
-547 -492 0
-56 -109 0
-56 -402 0
-56 -493 0
-56 -548 0
-109 -56 0
-109 -402 0
-109 -493 0
-109 -548 0
-402 -56 0
-402 -109 0
-402 -493 0
-402 -548 0
-493 -56 0
-493 -109 0
-493 -402 0
-493 -548 0
-548 -56 0
-548 -109 0
-548 -402 0
-548 -493 0
-57 -110 0
-57 -403 0
-57 -494 0
-57 -549 0
-110 -57 0
-110 -403 0
-110 -494 0
-110 -549 0
-403 -57 0
-403 -110 0
-403 -494 0
-403 -549 0
-494 -57 0
-494 -110 0
-494 -403 0
-494 -549 0
-549 -57 0
-549 -110 0
-549 -403 0
-549 -494 0
-58 -111 0
-58 -404 0
-58 -495 0
-58 -550 0
-111 -58 0
-111 -404 0
-111 -495 0
-111 -550 0
-404 -58 0
-404 -111 0
-404 -495 0
-404 -550 0
-495 -58 0
-495 -111 0
-495 -404 0
-495 -550 0
-550 -58 0
-550 -111 0
-550 -404 0
-550 -495 0
-59 -405 0
-59 -496 0
-59 -551 0
-405 -59 0
-405 -496 0
-405 -551 0
-496 -59 0
-496 -405 0
-496 -551 0
-551 -59 0
-551 -405 0
-551 -496 0
-60 -552 0
-552 -60 0
-185 -274 0
-274 -185 0
-186 -275 0
-275 -186 0
-187 -276 0
-187 -406 0
-276 -187 0
-276 -406 0
-406 -187 0
-406 -276 0
-188 -277 0
-188 -407 0
-277 -188 0
-277 -407 0
-407 -188 0
-407 -277 0
-189 -278 0
-189 -408 0
-278 -189 0
-278 -408 0
-408 -189 0
-408 -278 0
-190 -279 0
-190 -409 0
-279 -190 0
-279 -409 0
-409 -190 0
-409 -279 0
-191 -280 0
-191 -410 0
-280 -191 0
-280 -410 0
-410 -191 0
-410 -280 0
-192 -281 0
-192 -411 0
-281 -192 0
-281 -411 0
-411 -192 0
-411 -281 0
-61 -193 0
-61 -282 0
-61 -324 0
-61 -412 0
-193 -61 0
-193 -282 0
-193 -324 0
-193 -412 0
-282 -61 0
-282 -193 0
-282 -324 0
-282 -412 0
-324 -61 0
-324 -193 0
-324 -282 0
-324 -412 0
-412 -61 0
-412 -193 0
-412 -282 0
-412 -324 0
-62 -194 0
-62 -283 0
-62 -325 0
-62 -413 0
-194 -62 0
-194 -283 0
-194 -325 0
-194 -413 0
-283 -62 0
-283 -194 0
-283 -325 0
-283 -413 0
-325 -62 0
-325 -194 0
-325 -283 0
-325 -413 0
-413 -62 0
-413 -194 0
-413 -283 0
-413 -325 0
-63 -195 0
-63 -284 0
-63 -414 0
-195 -63 0
-195 -284 0
-195 -414 0
-284 -63 0
-284 -195 0
-284 -414 0
-414 -63 0
-414 -195 0
-414 -284 0
-64 -196 0
-64 -285 0
-64 -415 0
-64 -454 0
-196 -64 0
-196 -285 0
-196 -415 0
-196 -454 0
-285 -64 0
-285 -196 0
-285 -415 0
-285 -454 0
-415 -64 0
-415 -196 0
-415 -285 0
-415 -454 0
-454 -64 0
-454 -196 0
-454 -285 0
-454 -415 0
-65 -112 0
-65 -197 0
-65 -286 0
-65 -311 0
-65 -416 0
-65 -455 0
-112 -65 0
-112 -197 0
-112 -286 0
-112 -311 0
-112 -416 0
-112 -455 0
-197 -65 0
-197 -112 0
-197 -286 0
-197 -311 0
-197 -416 0
-197 -455 0
-286 -65 0
-286 -112 0
-286 -197 0
-286 -311 0
-286 -416 0
-286 -455 0
-311 -65 0
-311 -112 0
-311 -197 0
-311 -286 0
-311 -416 0
-311 -455 0
-416 -65 0
-416 -112 0
-416 -197 0
-416 -286 0
-416 -311 0
-416 -455 0
-455 -65 0
-455 -112 0
-455 -197 0
-455 -286 0
-455 -311 0
-455 -416 0
-66 -113 0
-66 -198 0
-66 -287 0
-66 -312 0
-66 -417 0
-66 -456 0
-66 -497 0
-113 -66 0
-113 -198 0
-113 -287 0
-113 -312 0
-113 -417 0
-113 -456 0
-113 -497 0
-198 -66 0
-198 -113 0
-198 -287 0
-198 -312 0
-198 -417 0
-198 -456 0
-198 -497 0
-287 -66 0
-287 -113 0
-287 -198 0
-287 -312 0
-287 -417 0
-287 -456 0
-287 -497 0
-312 -66 0
-312 -113 0
-312 -198 0
-312 -287 0
-312 -417 0
-312 -456 0
-312 -497 0
-417 -66 0
-417 -113 0
-417 -198 0
-417 -287 0
-417 -312 0
-417 -456 0
-417 -497 0
-456 -66 0
-456 -113 0
-456 -198 0
-456 -287 0
-456 -312 0
-456 -417 0
-456 -497 0
-497 -66 0
-497 -113 0
-497 -198 0
-497 -287 0
-497 -312 0
-497 -417 0
-497 -456 0
-67 -114 0
-67 -199 0
-67 -288 0
-67 -313 0
-67 -418 0
-67 -457 0
-67 -498 0
-114 -67 0
-114 -199 0
-114 -288 0
-114 -313 0
-114 -418 0
-114 -457 0
-114 -498 0
-199 -67 0
-199 -114 0
-199 -288 0
-199 -313 0
-199 -418 0
-199 -457 0
-199 -498 0
-288 -67 0
-288 -114 0
-288 -199 0
-288 -313 0
-288 -418 0
-288 -457 0
-288 -498 0
-313 -67 0
-313 -114 0
-313 -199 0
-313 -288 0
-313 -418 0
-313 -457 0
-313 -498 0
-418 -67 0
-418 -114 0
-418 -199 0
-418 -288 0
-418 -313 0
-418 -457 0
-418 -498 0
-457 -67 0
-457 -114 0
-457 -199 0
-457 -288 0
-457 -313 0
-457 -418 0
-457 -498 0
-498 -67 0
-498 -114 0
-498 -199 0
-498 -288 0
-498 -313 0
-498 -418 0
-498 -457 0
-68 -115 0
-68 -200 0
-68 -289 0
-68 -314 0
-68 -419 0
-68 -458 0
-68 -499 0
-68 -558 0
-115 -68 0
-115 -200 0
-115 -289 0
-115 -314 0
-115 -419 0
-115 -458 0
-115 -499 0
-115 -558 0
-200 -68 0
-200 -115 0
-200 -289 0
-200 -314 0
-200 -419 0
-200 -458 0
-200 -499 0
-200 -558 0
-289 -68 0
-289 -115 0
-289 -200 0
-289 -314 0
-289 -419 0
-289 -458 0
-289 -499 0
-289 -558 0
-314 -68 0
-314 -115 0
-314 -200 0
-314 -289 0
-314 -419 0
-314 -458 0
-314 -499 0
-314 -558 0
-419 -68 0
-419 -115 0
-419 -200 0
-419 -289 0
-419 -314 0
-419 -458 0
-419 -499 0
-419 -558 0
-458 -68 0
-458 -115 0
-458 -200 0
-458 -289 0
-458 -314 0
-458 -419 0
-458 -499 0
-458 -558 0
-499 -68 0
-499 -115 0
-499 -200 0
-499 -289 0
-499 -314 0
-499 -419 0
-499 -458 0
-499 -558 0
-558 -68 0
-558 -115 0
-558 -200 0
-558 -289 0
-558 -314 0
-558 -419 0
-558 -458 0
-558 -499 0
-69 -116 0
-69 -290 0
-69 -315 0
-69 -420 0
-69 -459 0
-69 -500 0
-69 -559 0
-116 -69 0
-116 -290 0
-116 -315 0
-116 -420 0
-116 -459 0
-116 -500 0
-116 -559 0
-290 -69 0
-290 -116 0
-290 -315 0
-290 -420 0
-290 -459 0
-290 -500 0
-290 -559 0
-315 -69 0
-315 -116 0
-315 -290 0
-315 -420 0
-315 -459 0
-315 -500 0
-315 -559 0
-420 -69 0
-420 -116 0
-420 -290 0
-420 -315 0
-420 -459 0
-420 -500 0
-420 -559 0
-459 -69 0
-459 -116 0
-459 -290 0
-459 -315 0
-459 -420 0
-459 -500 0
-459 -559 0
-500 -69 0
-500 -116 0
-500 -290 0
-500 -315 0
-500 -420 0
-500 -459 0
-500 -559 0
-559 -69 0
-559 -116 0
-559 -290 0
-559 -315 0
-559 -420 0
-559 -459 0
-559 -500 0
-70 -117 0
-70 -421 0
-70 -460 0
-70 -501 0
-70 -560 0
-117 -70 0
-117 -421 0
-117 -460 0
-117 -501 0
-117 -560 0
-421 -70 0
-421 -117 0
-421 -460 0
-421 -501 0
-421 -560 0
-460 -70 0
-460 -117 0
-460 -421 0
-460 -501 0
-460 -560 0
-501 -70 0
-501 -117 0
-501 -421 0
-501 -460 0
-501 -560 0
-560 -70 0
-560 -117 0
-560 -421 0
-560 -460 0
-560 -501 0
-71 -118 0
-71 -422 0
-71 -502 0
-71 -561 0
-118 -71 0
-118 -422 0
-118 -502 0
-118 -561 0
-422 -71 0
-422 -118 0
-422 -502 0
-422 -561 0
-502 -71 0
-502 -118 0
-502 -422 0
-502 -561 0
-561 -71 0
-561 -118 0
-561 -422 0
-561 -502 0
-72 -119 0
-72 -423 0
-72 -503 0
-72 -562 0
-119 -72 0
-119 -423 0
-119 -503 0
-119 -562 0
-423 -72 0
-423 -119 0
-423 -503 0
-423 -562 0
-503 -72 0
-503 -119 0
-503 -423 0
-503 -562 0
-562 -72 0
-562 -119 0
-562 -423 0
-562 -503 0
-73 -120 0
-73 -424 0
-73 -504 0
-73 -563 0
-120 -73 0
-120 -424 0
-120 -504 0
-120 -563 0
-424 -73 0
-424 -120 0
-424 -504 0
-424 -563 0
-504 -73 0
-504 -120 0
-504 -424 0
-504 -563 0
-563 -73 0
-563 -120 0
-563 -424 0
-563 -504 0
-74 -425 0
-74 -505 0
-74 -564 0
-425 -74 0
-425 -505 0
-425 -564 0
-505 -74 0
-505 -425 0
-505 -564 0
-564 -74 0
-564 -425 0
-564 -505 0
-75 -565 0
-565 -75 0
